sat
(= |goto_symex::&92;guard#1| true)
(= |goto_symex::&92;guard#2| true)
(= |goto_symex::&92;guard#3| true)
(= |nondet_symex::nondet0| false)
(= |nondet_symex::nondet1| false)
(= |nondet_symex::nondet2| true)
(= |nondet_symex::nondet3| false)
(= |nondet_symex::nondet4| true)
(= |nondet_symex::nondet7| false)
(= |nondet_symex::nondet8| true)
(= |memory_model::choice_rf_1_22_0_11_T_0| true)
(= |memory_model::choice_rf_1_22_2_17_T_1| false)
(= |memory_model::choice_rf_1_22_3_37_T_2| false)
(= |memory_model::choice_rf_2_16_0_11_T_3| true)
(= |memory_model::choice_rf_2_16_1_23_T_4| false)
(= |memory_model::choice_rf_2_16_3_37_T_5| false)
(= |memory_model::choice_rf_3_36_0_11_T_6| true)
(= |memory_model::choice_rf_3_36_1_23_T_7| false)
(= |memory_model::choice_rf_3_36_2_17_T_8| false)
(= |memory_model::choice_rf_0_59_0_9_T_9| false)
(= |memory_model::choice_rf_0_59_0_55_T_10| true)
(= |memory_model::choice_rf_0_64_0_9_T_11| false)
(= |memory_model::choice_rf_0_64_0_55_T_12| false)
(= |memory_model::choice_rf_0_64_0_60_T_13| true)
(= |memory_model::choice_rf_0_71_0_36_F_14| false)
(= |memory_model::choice_rf_0_71_1_15_F_15| false)
(= |memory_model::choice_rf_0_71_2_0_F_16| false)
(= |memory_model::choice_rf_0_71_2_1_F_17| false)
(= |memory_model::choice_rf_0_71_2_13_F_18| false)
(= |memory_model::choice_rf_0_71_3_16_F_19| false)
(= |memory_model::choice_rf_0_71_3_33_F_20| true)
(= |memory_model::choice_rf_0_93_0_36_F_21| false)
(= |memory_model::choice_rf_0_93_0_82_F_22| true)
(= |memory_model::choice_rf_0_93_1_15_F_23| false)
(= |memory_model::choice_rf_0_93_2_0_F_24| false)
(= |memory_model::choice_rf_0_93_2_1_F_25| false)
(= |memory_model::choice_rf_0_93_2_13_F_26| false)
(= |memory_model::choice_rf_0_93_3_16_F_27| false)
(= |memory_model::choice_rf_0_93_3_33_F_28| false)
(= |memory_model::choice_rf_1_7_0_36_F_29| false)
(= |memory_model::choice_rf_1_7_0_82_F_30| false)
(= |memory_model::choice_rf_1_7_0_109_F_31| false)
(= |memory_model::choice_rf_1_7_2_0_F_32| false)
(= |memory_model::choice_rf_1_7_2_1_F_33| false)
(= |memory_model::choice_rf_1_7_2_13_F_34| false)
(= |memory_model::choice_rf_1_7_3_16_F_35| true)
(= |memory_model::choice_rf_1_7_3_33_F_36| false)
(= |memory_model::choice_rf_2_2_0_36_F_37| false)
(= |memory_model::choice_rf_2_2_0_82_F_38| false)
(= |memory_model::choice_rf_2_2_0_109_F_39| false)
(= |memory_model::choice_rf_2_2_1_15_F_40| false)
(= |memory_model::choice_rf_2_2_2_0_F_41| false)
(= |memory_model::choice_rf_2_2_2_1_F_42| true)
(= |memory_model::choice_rf_2_2_3_16_F_43| false)
(= |memory_model::choice_rf_2_2_3_33_F_44| false)
(= |memory_model::choice_rf_3_6_0_36_F_45| true)
(= |memory_model::choice_rf_3_6_0_82_F_46| false)
(= |memory_model::choice_rf_3_6_0_109_F_47| false)
(= |memory_model::choice_rf_3_6_1_15_F_48| false)
(= |memory_model::choice_rf_3_6_2_0_F_49| false)
(= |memory_model::choice_rf_3_6_2_1_F_50| false)
(= |memory_model::choice_rf_3_6_2_13_F_51| false)
(= |memory_model::choice_rf_3_22_0_36_F_52| false)
(= |memory_model::choice_rf_3_22_0_82_F_53| false)
(= |memory_model::choice_rf_3_22_0_109_F_54| false)
(= |memory_model::choice_rf_3_22_1_15_F_55| false)
(= |memory_model::choice_rf_3_22_2_0_F_56| false)
(= |memory_model::choice_rf_3_22_2_1_F_57| false)
(= |memory_model::choice_rf_3_22_2_13_F_58| true)
(= |memory_model::choice_rf_3_22_3_16_F_59| false)
(= |memory_model::choice_rf_0_68_0_12_F_60| false)
(= |memory_model::choice_rf_0_68_1_21_F_61| false)
(= |memory_model::choice_rf_0_68_2_15_F_62| false)
(= |memory_model::choice_rf_0_68_3_35_F_63| true)
(= |memory_model::choice_rf_1_20_0_12_F_64| false)
(= |memory_model::choice_rf_1_20_2_15_F_65| true)
(= |memory_model::choice_rf_1_20_3_35_F_66| false)
(= |memory_model::choice_rf_2_14_0_12_F_67| true)
(= |memory_model::choice_rf_2_14_1_21_F_68| false)
(= |memory_model::choice_rf_2_14_3_35_F_69| false)
(= |memory_model::choice_rf_3_34_0_12_F_70| false)
(= |memory_model::choice_rf_3_34_1_21_F_71| true)
(= |memory_model::choice_rf_3_34_2_15_F_72| false)
(= |memory_model::choice_rf_0_84_0_13_F_73| false)
(= |memory_model::choice_rf_0_84_1_8_F_74| true)
(= |memory_model::choice_rf_0_85_0_14_F_75| true)
(= |memory_model::choice_rf_0_85_3_7_F_76| false)
(= |memory_model::choice_rf_0_100_0_25_F_77| false)
(= |memory_model::choice_rf_0_100_3_8_F_78| true)
(= |memory_model::choice_rf_0_70_0_31_F_79| false)
(= |memory_model::choice_rf_0_70_0_69_F_80| true)
(= |memory_model::choice_rf_0_83_0_32_F_81| false)
(= |memory_model::choice_rf_0_115_0_32_F_82| false)
(= |memory_model::choice_rf_0_115_0_101_F_83| true)
(= |memory_model::choice_rf_0_116_0_32_F_84| false)
(= |memory_model::choice_rf_0_116_0_101_F_85| true)
(= |memory_model::choice_rf_0_90_0_37_F_86| false)
(= |memory_model::choice_rf_0_90_1_17_F_87| false)
(= |memory_model::choice_rf_0_90_3_18_F_88| false)
(= |memory_model::choice_rf_0_94_0_38_F_89| false)
(= |memory_model::choice_rf_0_94_1_16_F_90| false)
(= |memory_model::choice_rf_0_94_3_17_F_91| false)
(= |memory_model::choice_rf_0_76_0_39_F_92| true)
(= |memory_model::choice_rf_0_96_0_39_F_93| false)
(= |memory_model::choice_rf_0_96_0_79_F_94| true)
(= |memory_model::choice_rf_1_5_0_40_F_95| true)
(= |memory_model::choice_rf_2_7_0_41_F_96| true)
(= |memory_model::choice_rf_3_4_0_42_F_97| true)
(= |memory_model::choice_rf_3_27_0_42_F_98| false)
(= |memory_model::choice_rf_3_27_3_10_F_99| true)
(= |memory_model::choice_rf_0_75_0_43_F_100| true)
(= |memory_model::choice_rf_0_97_0_43_F_101| false)
(= |memory_model::choice_rf_0_97_0_78_F_102| true)
(= |memory_model::choice_rf_1_3_0_44_F_103| true)
(= |memory_model::choice_rf_2_4_0_45_F_104| true)
(= |memory_model::choice_rf_3_2_0_46_F_105| true)
(= |memory_model::choice_rf_3_24_0_46_F_106| false)
(= |memory_model::choice_rf_3_24_3_9_F_107| true)
(= |memory_model::choice_rf_0_74_0_49_F_108| false)
(= |memory_model::choice_rf_0_74_1_14_F_109| true)
(= |memory_model::choice_rf_0_74_3_14_F_110| false)
(= |memory_model::choice_rf_0_87_0_49_F_111| false)
(= |memory_model::choice_rf_0_87_1_14_F_112| true)
(= |memory_model::choice_rf_0_87_3_14_F_113| false)
(= |memory_model::choice_rf_1_2_0_49_F_114| false)
(= |memory_model::choice_rf_1_2_0_103_F_115| false)
(= |memory_model::choice_rf_1_2_3_14_F_116| true)
(= |memory_model::choice_rf_2_6_0_49_F_117| false)
(= |memory_model::choice_rf_2_6_0_103_F_118| false)
(= |memory_model::choice_rf_2_6_1_14_F_119| true)
(= |memory_model::choice_rf_2_6_3_14_F_120| false)
(= |memory_model::choice_rf_3_1_0_49_F_121| true)
(= |memory_model::choice_rf_3_1_0_103_F_122| false)
(= |memory_model::choice_rf_3_1_1_14_F_123| false)
(= |memory_model::choice_rf_3_26_0_49_F_124| false)
(= |memory_model::choice_rf_3_26_0_103_F_125| false)
(= |memory_model::choice_rf_3_26_1_14_F_126| true)
(= |memory_model::choice_rf_3_26_3_14_F_127| false)
(= |memory_model::choice_rf_0_77_0_50_F_128| false)
(= |memory_model::choice_rf_0_77_1_12_F_129| false)
(= |memory_model::choice_rf_0_77_2_12_F_130| false)
(= |memory_model::choice_rf_0_77_3_12_F_131| false)
(= |memory_model::choice_rf_0_77_3_32_F_132| true)
(= |memory_model::choice_rf_0_95_0_50_F_133| false)
(= |memory_model::choice_rf_0_95_0_81_F_134| true)
(= |memory_model::choice_rf_0_95_1_12_F_135| false)
(= |memory_model::choice_rf_0_95_2_12_F_136| false)
(= |memory_model::choice_rf_0_95_3_12_F_137| false)
(= |memory_model::choice_rf_0_95_3_32_F_138| false)
(= |memory_model::choice_rf_1_6_0_50_F_139| false)
(= |memory_model::choice_rf_1_6_0_81_F_140| false)
(= |memory_model::choice_rf_1_6_0_111_F_141| false)
(= |memory_model::choice_rf_1_6_2_12_F_142| false)
(= |memory_model::choice_rf_1_6_3_12_F_143| true)
(= |memory_model::choice_rf_1_6_3_32_F_144| false)
(= |memory_model::choice_rf_2_8_0_50_F_145| false)
(= |memory_model::choice_rf_2_8_0_81_F_146| false)
(= |memory_model::choice_rf_2_8_0_111_F_147| false)
(= |memory_model::choice_rf_2_8_1_12_F_148| true)
(= |memory_model::choice_rf_2_8_3_12_F_149| false)
(= |memory_model::choice_rf_2_8_3_32_F_150| false)
(= |memory_model::choice_rf_3_5_0_50_F_151| true)
(= |memory_model::choice_rf_3_5_0_81_F_152| false)
(= |memory_model::choice_rf_3_5_0_111_F_153| false)
(= |memory_model::choice_rf_3_5_1_12_F_154| false)
(= |memory_model::choice_rf_3_5_2_12_F_155| false)
(= |memory_model::choice_rf_3_28_0_50_F_156| false)
(= |memory_model::choice_rf_3_28_0_81_F_157| false)
(= |memory_model::choice_rf_3_28_0_111_F_158| false)
(= |memory_model::choice_rf_3_28_1_12_F_159| false)
(= |memory_model::choice_rf_3_28_2_12_F_160| true)
(= |memory_model::choice_rf_3_28_3_12_F_161| false)
(= |memory_model::choice_rf_0_72_0_51_F_162| false)
(= |memory_model::choice_rf_0_72_1_13_F_163| true)
(= |memory_model::choice_rf_0_72_3_13_F_164| false)
(= |memory_model::choice_rf_0_99_0_51_F_165| false)
(= |memory_model::choice_rf_0_99_1_13_F_166| true)
(= |memory_model::choice_rf_0_99_3_13_F_167| false)
(= |memory_model::choice_rf_1_1_0_51_F_168| false)
(= |memory_model::choice_rf_1_1_0_110_F_169| false)
(= |memory_model::choice_rf_1_1_3_13_F_170| true)
(= |memory_model::choice_rf_2_3_0_51_F_171| false)
(= |memory_model::choice_rf_2_3_0_110_F_172| false)
(= |memory_model::choice_rf_2_3_1_13_F_173| true)
(= |memory_model::choice_rf_2_3_3_13_F_174| false)
(= |memory_model::choice_rf_3_0_0_51_F_175| true)
(= |memory_model::choice_rf_3_0_0_110_F_176| false)
(= |memory_model::choice_rf_3_0_1_13_F_177| false)
(= |memory_model::choice_rf_3_23_0_51_F_178| false)
(= |memory_model::choice_rf_3_23_0_110_F_179| false)
(= |memory_model::choice_rf_3_23_1_13_F_180| true)
(= |memory_model::choice_rf_3_23_3_13_F_181| false)
(= |memory_model::choice_rf_0_73_0_52_F_182| false)
(= |memory_model::choice_rf_0_73_1_11_F_183| false)
(= |memory_model::choice_rf_0_73_2_11_F_184| false)
(= |memory_model::choice_rf_0_73_3_11_F_185| false)
(= |memory_model::choice_rf_0_73_3_31_F_186| true)
(= |memory_model::choice_rf_0_98_0_52_F_187| false)
(= |memory_model::choice_rf_0_98_0_80_F_188| true)
(= |memory_model::choice_rf_0_98_1_11_F_189| false)
(= |memory_model::choice_rf_0_98_2_11_F_190| false)
(= |memory_model::choice_rf_0_98_3_11_F_191| false)
(= |memory_model::choice_rf_0_98_3_31_F_192| false)
(= |memory_model::choice_rf_1_4_0_52_F_193| false)
(= |memory_model::choice_rf_1_4_0_80_F_194| false)
(= |memory_model::choice_rf_1_4_0_112_F_195| false)
(= |memory_model::choice_rf_1_4_2_11_F_196| false)
(= |memory_model::choice_rf_1_4_3_11_F_197| true)
(= |memory_model::choice_rf_1_4_3_31_F_198| false)
(= |memory_model::choice_rf_2_5_0_52_F_199| false)
(= |memory_model::choice_rf_2_5_0_80_F_200| false)
(= |memory_model::choice_rf_2_5_0_112_F_201| false)
(= |memory_model::choice_rf_2_5_1_11_F_202| true)
(= |memory_model::choice_rf_2_5_3_11_F_203| false)
(= |memory_model::choice_rf_2_5_3_31_F_204| false)
(= |memory_model::choice_rf_3_3_0_52_F_205| true)
(= |memory_model::choice_rf_3_3_0_80_F_206| false)
(= |memory_model::choice_rf_3_3_0_112_F_207| false)
(= |memory_model::choice_rf_3_3_1_11_F_208| false)
(= |memory_model::choice_rf_3_3_2_11_F_209| false)
(= |memory_model::choice_rf_3_25_0_52_F_210| false)
(= |memory_model::choice_rf_3_25_0_80_F_211| false)
(= |memory_model::choice_rf_3_25_0_112_F_212| false)
(= |memory_model::choice_rf_3_25_1_11_F_213| false)
(= |memory_model::choice_rf_3_25_2_11_F_214| true)
(= |memory_model::choice_rf_3_25_3_11_F_215| false)
(= |memory_model::choice_rf_0_91_0_53_F_216| false)
(= |memory_model::choice_rf_0_91_1_0_F_217| true)
(= |memory_model::choice_rf_0_91_3_21_F_218| false)
(= |memory_model::choice_rf_0_86_0_33_F_219| false)
(= |memory_model::choice_rf_0_86_1_19_F_220| false)
(= |memory_model::choice_rf_0_86_3_20_F_221| false)
(= |memory_model::choice_rf_0_89_0_34_F_222| false)
(= |memory_model::choice_rf_0_88_0_35_F_223| false)
(= |memory_model::choice_rf_0_88_1_18_F_224| false)
(= |memory_model::choice_rf_0_88_3_19_F_225| false)
(= |memory_model::choice_rf_0_92_0_2_F_226| true)
(= |memory_model::choice_ws-ext_0_11_1_23_T_227| true)
(= |memory_model::choice_ws-ext_0_11_2_17_T_228| true)
(= |memory_model::choice_ws-ext_0_11_3_37_T_229| true)
(= |memory_model::choice_ws-ext_1_23_2_17_T_230| true)
(= |memory_model::choice_ws-ext_1_23_3_37_T_231| true)
(= |memory_model::choice_ws-ext_2_17_3_37_T_232| false)
(= |memory_model::choice_ws-ext_0_36_1_15_F_233| true)
(= |memory_model::choice_ws-ext_0_36_2_0_F_234| true)
(= |memory_model::choice_ws-ext_0_36_2_1_F_235| true)
(= |memory_model::choice_ws-ext_0_36_2_13_F_236| true)
(= |memory_model::choice_ws-ext_0_36_3_16_F_237| true)
(= |memory_model::choice_ws-ext_0_36_3_33_F_238| true)
(= |memory_model::choice_ws-ext_0_82_1_15_F_239| false)
(= |memory_model::choice_ws-ext_0_82_2_0_F_240| false)
(= |memory_model::choice_ws-ext_0_82_2_1_F_241| false)
(= |memory_model::choice_ws-ext_0_82_2_13_F_242| false)
(= |memory_model::choice_ws-ext_0_82_3_16_F_243| false)
(= |memory_model::choice_ws-ext_0_82_3_33_F_244| false)
(= |memory_model::choice_ws-ext_0_109_1_15_F_245| false)
(= |memory_model::choice_ws-ext_0_109_2_0_F_246| false)
(= |memory_model::choice_ws-ext_0_109_2_1_F_247| false)
(= |memory_model::choice_ws-ext_0_109_2_13_F_248| false)
(= |memory_model::choice_ws-ext_0_109_3_16_F_249| false)
(= |memory_model::choice_ws-ext_0_109_3_33_F_250| false)
(= |memory_model::choice_ws-ext_1_15_2_0_F_251| true)
(= |memory_model::choice_ws-ext_1_15_2_1_F_252| true)
(= |memory_model::choice_ws-ext_1_15_2_13_F_253| true)
(= |memory_model::choice_ws-ext_1_15_3_16_F_254| false)
(= |memory_model::choice_ws-ext_1_15_3_33_F_255| true)
(= |memory_model::choice_ws-ext_2_0_3_16_F_256| false)
(= |memory_model::choice_ws-ext_2_0_3_33_F_257| true)
(= |memory_model::choice_ws-ext_2_1_3_16_F_258| false)
(= |memory_model::choice_ws-ext_2_1_3_33_F_259| true)
(= |memory_model::choice_ws-ext_2_13_3_16_F_260| false)
(= |memory_model::choice_ws-ext_2_13_3_33_F_261| true)
(= |memory_model::choice_ws-ext_0_12_1_21_F_262| true)
(= |memory_model::choice_ws-ext_0_12_2_15_F_263| true)
(= |memory_model::choice_ws-ext_0_12_3_35_F_264| true)
(= |memory_model::choice_ws-ext_1_21_2_15_F_265| false)
(= |memory_model::choice_ws-ext_1_21_3_35_F_266| true)
(= |memory_model::choice_ws-ext_2_15_3_35_F_267| true)
(= |memory_model::choice_ws-ext_0_13_1_8_F_268| true)
(= |memory_model::choice_ws-ext_0_14_3_7_F_269| true)
(= |memory_model::choice_ws-ext_0_108_3_7_F_270| false)
(= |memory_model::choice_ws-ext_0_25_3_8_F_271| true)
(= |memory_model::choice_ws-ext_0_26_3_15_F_272| true)
(= |memory_model::choice_ws-ext_0_37_1_17_F_273| true)
(= |memory_model::choice_ws-ext_0_37_3_18_F_274| true)
(= |memory_model::choice_ws-ext_0_106_1_17_F_275| false)
(= |memory_model::choice_ws-ext_0_106_3_18_F_276| false)
(= |memory_model::choice_ws-ext_1_17_3_18_F_277| false)
(= |memory_model::choice_ws-ext_0_38_1_16_F_278| true)
(= |memory_model::choice_ws-ext_0_38_3_17_F_279| true)
(= |memory_model::choice_ws-ext_0_107_1_16_F_280| false)
(= |memory_model::choice_ws-ext_0_107_3_17_F_281| false)
(= |memory_model::choice_ws-ext_1_16_3_17_F_282| false)
(= |memory_model::choice_ws-ext_0_40_1_10_F_283| true)
(= |memory_model::choice_ws-ext_0_41_2_10_F_284| true)
(= |memory_model::choice_ws-ext_0_42_3_10_F_285| true)
(= |memory_model::choice_ws-ext_0_42_3_30_F_286| true)
(= |memory_model::choice_ws-ext_0_44_1_9_F_287| true)
(= |memory_model::choice_ws-ext_0_45_2_9_F_288| true)
(= |memory_model::choice_ws-ext_0_46_3_9_F_289| true)
(= |memory_model::choice_ws-ext_0_46_3_29_F_290| true)
(= |memory_model::choice_ws-ext_0_49_1_14_F_291| true)
(= |memory_model::choice_ws-ext_0_49_3_14_F_292| true)
(= |memory_model::choice_ws-ext_0_103_1_14_F_293| false)
(= |memory_model::choice_ws-ext_0_103_3_14_F_294| false)
(= |memory_model::choice_ws-ext_1_14_3_14_F_295| false)
(= |memory_model::choice_ws-ext_0_50_1_12_F_296| true)
(= |memory_model::choice_ws-ext_0_50_2_12_F_297| true)
(= |memory_model::choice_ws-ext_0_50_3_12_F_298| true)
(= |memory_model::choice_ws-ext_0_50_3_32_F_299| true)
(= |memory_model::choice_ws-ext_0_81_1_12_F_300| false)
(= |memory_model::choice_ws-ext_0_81_2_12_F_301| false)
(= |memory_model::choice_ws-ext_0_81_3_12_F_302| false)
(= |memory_model::choice_ws-ext_0_81_3_32_F_303| false)
(= |memory_model::choice_ws-ext_0_111_1_12_F_304| false)
(= |memory_model::choice_ws-ext_0_111_2_12_F_305| false)
(= |memory_model::choice_ws-ext_0_111_3_12_F_306| false)
(= |memory_model::choice_ws-ext_0_111_3_32_F_307| false)
(= |memory_model::choice_ws-ext_1_12_2_12_F_308| true)
(= |memory_model::choice_ws-ext_1_12_3_12_F_309| false)
(= |memory_model::choice_ws-ext_1_12_3_32_F_310| true)
(= |memory_model::choice_ws-ext_2_12_3_12_F_311| false)
(= |memory_model::choice_ws-ext_2_12_3_32_F_312| true)
(= |memory_model::choice_ws-ext_0_51_1_13_F_313| true)
(= |memory_model::choice_ws-ext_0_51_3_13_F_314| true)
(= |memory_model::choice_ws-ext_0_110_1_13_F_315| false)
(= |memory_model::choice_ws-ext_0_110_3_13_F_316| false)
(= |memory_model::choice_ws-ext_1_13_3_13_F_317| false)
(= |memory_model::choice_ws-ext_0_52_1_11_F_318| true)
(= |memory_model::choice_ws-ext_0_52_2_11_F_319| true)
(= |memory_model::choice_ws-ext_0_52_3_11_F_320| true)
(= |memory_model::choice_ws-ext_0_52_3_31_F_321| true)
(= |memory_model::choice_ws-ext_0_80_1_11_F_322| false)
(= |memory_model::choice_ws-ext_0_80_2_11_F_323| false)
(= |memory_model::choice_ws-ext_0_80_3_11_F_324| false)
(= |memory_model::choice_ws-ext_0_80_3_31_F_325| false)
(= |memory_model::choice_ws-ext_0_112_1_11_F_326| false)
(= |memory_model::choice_ws-ext_0_112_2_11_F_327| false)
(= |memory_model::choice_ws-ext_0_112_3_11_F_328| false)
(= |memory_model::choice_ws-ext_0_112_3_31_F_329| false)
(= |memory_model::choice_ws-ext_1_11_2_11_F_330| true)
(= |memory_model::choice_ws-ext_1_11_3_11_F_331| false)
(= |memory_model::choice_ws-ext_1_11_3_31_F_332| true)
(= |memory_model::choice_ws-ext_2_11_3_11_F_333| false)
(= |memory_model::choice_ws-ext_2_11_3_31_F_334| true)
(= |memory_model::choice_ws-ext_0_53_1_0_F_335| true)
(= |memory_model::choice_ws-ext_0_53_3_21_F_336| true)
(= |memory_model::choice_ws-ext_1_0_3_21_F_337| false)
(= |memory_model::choice_ws-ext_0_33_1_19_F_338| true)
(= |memory_model::choice_ws-ext_0_33_3_20_F_339| true)
(= |memory_model::choice_ws-ext_0_102_1_19_F_340| false)
(= |memory_model::choice_ws-ext_0_102_3_20_F_341| false)
(= |memory_model::choice_ws-ext_1_19_3_20_F_342| false)
(= |memory_model::choice_ws-ext_0_35_1_18_F_343| true)
(= |memory_model::choice_ws-ext_0_35_3_19_F_344| true)
(= |memory_model::choice_ws-ext_0_104_1_18_F_345| false)
(= |memory_model::choice_ws-ext_0_104_3_19_F_346| false)
(= |memory_model::choice_ws-ext_1_18_3_19_F_347| false)
(= |main$tmp_guard0#3| #b00000001)
(= |__CPROVER_next_thread_id#3| #b00000000000000000000000000000001)
(= |__CPROVER_next_thread_id#6| #b00000000000000000000000000000010)
(= |__unbuffered_cnt#2| #b00000000000000000000000000000011)
(= |x$w_buff0_used#2| #b00000000)
(= |x$r_buff0_thd0#2| #b00000000)
(= |x$w_buff0#2| #b00000000000000000000000000000000)
(= |x$w_buff1_used#2| #b00000000)
(= |x$r_buff1_thd0#2| #b00000000)
(= |x$w_buff1#2| #b00000000000000000000000000000000)
(= |x#2| #b00000000000000000000000000000010)
(= |x#4| #b00000000000000000000000000000010)
(= |x$w_buff0_used#6| #b00000000)
(= |x$w_buff1_used#6| #b00000000)
(= |x$r_buff0_thd0#8| #b00000000)
(= |x$r_buff1_thd0#7| #b00000000)
(= |weak$$choice0#2| #b00000000)
(= |weak$$choice0#3| #b10000000)
(= |weak$$choice2#2| #b00000000)
(= |weak$$choice2#3| #b10000000)
(= |x$flush_delayed#2| #b00000000)
(= |x$flush_delayed#3| #b10000000)
(= |x#6| #b00000000000000000000000000000010)
(= |x$mem_tmp#2| #b00000000000000000000000000000010)
(= |x$mem_tmp#3| #b10000000000000000000000000000000)
(= |x$w_buff0_used#11| #b00000000)
(= |x$r_buff0_thd0#11| #b00000000)
(= |x$w_buff1_used#9| #b00000000)
(= |x$r_buff1_thd0#9| #b00000000)
(= |x$w_buff0#4| #b00000000000000000000000000000000)
(= |x$w_buff1#4| #b00000000000000000000000000000000)
(= |x#9| #b00000000000000000000000000000010)
(= |x$w_buff0#10| #b00000000000000000000000000000000)
(= |x$w_buff1#10| #b00000000000000000000000000000000)
(= |x$w_buff0_used#23| #b00000000)
(= |x$w_buff1_used#17| #b00000000)
(= |x$r_buff0_thd0#33| #b00000000)
(= |x$r_buff1_thd0#19| #b00000000)
(= |weak$$choice1#2| #b00000001)
(= |weak$$choice1#3| #b10000000)
(= |__unbuffered_p2_EAX$read_delayed#2| #b00000001)
(= |__unbuffered_p2_EAX$read_delayed_var$object#1| #b00000000000000000000000000000010)
(= |__unbuffered_p2_EAX#2| #b00000000000000000000000000000000)
(= |__unbuffered_p2_EAX#8| #b00000000000000000000000000000010)
(= |y#2| #b00000000000000000000000000000010)
(= |__unbuffered_p0_EAX#2| #b00000000000000000000000000000000)
(= |main$tmp_guard1#2| #b00000000)
(= |main$tmp_guard1#3| #b10000000)
(= |x#13| #b00000000000000000000000000000010)
(= |x$flush_delayed#6| #b00000000)
(= |main$tmp_guard1#6| #b00000000)
(= |pthread_create::1::this_thread_id!1@0#0| #b10000000000000000000000000000000)
(= |x#15| #b00000000000000000000000000000000)
(= |x$w_buff0_used#31| #b00000000)
(= |x$r_buff0_thd1#2| #b00000000)
(= |x$w_buff1_used#21| #b00000000)
(= |x$r_buff1_thd1#2| #b00000000)
(= |x$w_buff0#12| #b00000000000000000000000000000000)
(= |x$w_buff1#12| #b00000000000000000000000000000000)
(= |__unbuffered_cnt#4| #b00000000000000000000000000000001)
(= |pthread_create::1::this_thread_id!2@0#0| #b00000000000000000000000000000000)
(= |x$w_buff0_used#34| #b00000000)
(= |x$r_buff0_thd2#2| #b00000000)
(= |x$w_buff0#15| #b00000000000000000000000000000000)
(= |x$w_buff1_used#24| #b00000000)
(= |x$r_buff1_thd2#2| #b00000000)
(= |x$w_buff1#15| #b00000000000000000000000000000000)
(= |x#21| #b00000000000000000000000000000010)
(= |__unbuffered_cnt#7| #b00000000000000000000000000000000)
(= |pthread_create::1::this_thread_id!3@0#0| #b00000000000000000000000000000000)
(= |x#24| #b00000000000000000000000000000000)
(= |x$w_buff0_used#37| #b00000000)
(= |x$r_buff0_thd3#2| #b00000000)
(= |x$w_buff1_used#27| #b00000000)
(= |x$r_buff1_thd3#2| #b00000000)
(= |x$w_buff0#17| #b00000000000000000000000000000000)
(= |x$w_buff1#17| #b00000000000000000000000000000000)
(= |x$w_buff0_used#40| #b00000000)
(= |x$r_buff0_thd3#5| #b00000000)
(= |x$w_buff0#20| #b00000000000000000000000000000000)
(= |x$w_buff1_used#30| #b00000000)
(= |x$r_buff1_thd3#5| #b00000000)
(= |x$w_buff1#20| #b00000000000000000000000000000000)
(= |x#28| #b00000000000000000000000000000010)
(= |__unbuffered_cnt#10| #b00000000000000000000000000000010)
(= |__CPROVER_threads_exited#1$wclk$8| #b00010010)
(= |__CPROVER_threads_exited#2$rclk$8| #b11110110)
(= |__CPROVER_threads_exited#5$wclk$8| #b11111111)
(= |__CPROVER_threads_exited#7$wclk$8| #b11111100)
(= |__CPROVER_threads_exited#4$rclk$8| #b11101111)
(= |__CPROVER_threads_exited#3$wclk$8| #b11111011)
(= |__CPROVER_threads_exited#6$rclk$8| #b11101101)
(= |x#18$wclk$8| #b10000011)
(= |x#2$rclk$8| #b10111101)
(= |x#19$wclk$8| #b10100001)
(= |x#20$wclk$8| #b10100100)
(= |x#23$wclk$8| #b10100101)
(= |x#27$wclk$8| #b10000000)
(= |x#30$wclk$8| #b10110100)
(= |x#6$rclk$8| #b11111101)
(= |x#1$wclk$8| #b01000111)
(= |x#15$rclk$8| #b10000011)
(= |x#5$wclk$8| #b10111101)
(= |x#14$wclk$8| #b11111101)
(= |x#21$rclk$8| #b10100101)
(= |x#24$rclk$8| #b10000000)
(= |x#28$rclk$8| #b10110100)
(= |__unbuffered_cnt#6$wclk$8| #b10110100)
(= |__unbuffered_cnt#2$rclk$8| #b10110110)
(= |__unbuffered_cnt#9$wclk$8| #b10100110)
(= |__unbuffered_cnt#12$wclk$8| #b10110101)
(= |__unbuffered_cnt#1$wclk$8| #b00010011)
(= |__unbuffered_cnt#4$rclk$8| #b10110100)
(= |__unbuffered_cnt#7$rclk$8| #b10100110)
(= |__unbuffered_cnt#10$rclk$8| #b10110101)
(= |__unbuffered_p0_EAX#4$wclk$8| #b10000011)
(= |__unbuffered_p0_EAX#2$rclk$8| #b11111101)
(= |__unbuffered_p2_EAX#11$wclk$8| #b10000000)
(= |__unbuffered_p2_EAX#2$rclk$8| #b11111101)
(= |__unbuffered_p2_EAX$read_delayed#4$wclk$8| #b10000000)
(= |__unbuffered_p2_EAX$read_delayed#2$rclk$8| #b11111101)
(= |main$tmp_guard1#5| #b00000000)
(= |x$flush_delayed#9$wclk$8| #b10000011)
(= |x$flush_delayed#3$rclk$8| #b11111101)
(= |x$flush_delayed#11$wclk$8| #b10000000)
(= |x$mem_tmp#6$wclk$8| #b10000011)
(= |x$mem_tmp#3$rclk$8| #b11111101)
(= |x$mem_tmp#7$wclk$8| #b10000000)
(= |x$r_buff0_thd1#1$wclk$8| #b01001011)
(= |x$r_buff0_thd1#2$rclk$8| #b10000011)
(= |x$r_buff0_thd2#1$wclk$8| #b01001100)
(= |x$r_buff0_thd2#2$rclk$8| #b10100101)
(= |x$r_buff0_thd3#1$wclk$8| #b01001110)
(= |x$r_buff0_thd3#2$rclk$8| #b10000000)
(= |x$r_buff0_thd3#5$rclk$8| #b10110100)
(= |x$r_buff1_thd1#1$wclk$8| #b01010001)
(= |x$r_buff1_thd1#2$rclk$8| #b10000011)
(= |x$r_buff1_thd2#1$wclk$8| #b01010010)
(= |x$r_buff1_thd2#2$rclk$8| #b10100101)
(= |x$r_buff1_thd3#1$wclk$8| #b01011001)
(= |x$r_buff1_thd3#2$rclk$8| #b10000000)
(= |x$r_buff1_thd3#5$rclk$8| #b10110100)
(= |x$w_buff0#14$wclk$8| #b10000011)
(= |x$w_buff0#2$rclk$8| #b10111101)
(= |x$w_buff0#19$wclk$8| #b10000000)
(= |x$w_buff0#4$rclk$8| #b11111101)
(= |x$w_buff0#1$wclk$8| #b01100001)
(= |x$w_buff0#12$rclk$8| #b10000011)
(= |x$w_buff0#11$wclk$8| #b11111101)
(= |x$w_buff0#15$rclk$8| #b10100101)
(= |x$w_buff0#17$rclk$8| #b10000000)
(= |x$w_buff0#20$rclk$8| #b10110100)
(= |x$w_buff0_used#33$wclk$8| #b10000011)
(= |x$w_buff0_used#2$rclk$8| #b10111101)
(= |x$w_buff0_used#36$wclk$8| #b10100101)
(= |x$w_buff0_used#39$wclk$8| #b10000000)
(= |x$w_buff0_used#42$wclk$8| #b10110100)
(= |x$w_buff0_used#11$rclk$8| #b11111101)
(= |x$w_buff0_used#1$wclk$8| #b01100010)
(= |x$w_buff0_used#31$rclk$8| #b10000011)
(= |x$w_buff0_used#10$wclk$8| #b10111101)
(= |x$w_buff0_used#30$wclk$8| #b11111101)
(= |x$w_buff0_used#34$rclk$8| #b10100101)
(= |x$w_buff0_used#37$rclk$8| #b10000000)
(= |x$w_buff0_used#40$rclk$8| #b10110100)
(= |x$w_buff1#14$wclk$8| #b10000011)
(= |x$w_buff1#2$rclk$8| #b10111101)
(= |x$w_buff1#19$wclk$8| #b10000000)
(= |x$w_buff1#4$rclk$8| #b11111101)
(= |x$w_buff1#1$wclk$8| #b01100011)
(= |x$w_buff1#12$rclk$8| #b10000011)
(= |x$w_buff1#11$wclk$8| #b11111101)
(= |x$w_buff1#15$rclk$8| #b10100101)
(= |x$w_buff1#17$rclk$8| #b10000000)
(= |x$w_buff1#20$rclk$8| #b10110100)
(= |x$w_buff1_used#23$wclk$8| #b10000011)
(= |x$w_buff1_used#2$rclk$8| #b10111101)
(= |x$w_buff1_used#26$wclk$8| #b10100101)
(= |x$w_buff1_used#29$wclk$8| #b10000000)
(= |x$w_buff1_used#32$wclk$8| #b10110100)
(= |x$w_buff1_used#9$rclk$8| #b11111101)
(= |x$w_buff1_used#1$wclk$8| #b01100100)
(= |x$w_buff1_used#21$rclk$8| #b10000011)
(= |x$w_buff1_used#8$wclk$8| #b10111101)
(= |x$w_buff1_used#20$wclk$8| #b11111101)
(= |x$w_buff1_used#24$rclk$8| #b10100101)
(= |x$w_buff1_used#27$rclk$8| #b10000000)
(= |x$w_buff1_used#30$rclk$8| #b10110100)
(= |y#4$wclk$8| #b10000010)
(= |y#2$rclk$8| #b11111101)
(= |y#5$wclk$8| #b10000001)
(= |weak$$choice0#5$wclk$8| #b10000011)
(= |weak$$choice0#3$rclk$8| #b11111101)
(= |weak$$choice0#6$wclk$8| #b10000000)
(= |weak$$choice2#12$wclk$8| #b10000011)
(= |weak$$choice2#3$rclk$8| #b11111101)
(= |weak$$choice2#13$wclk$8| #b10000000)
(= __unbuffered_p2_EAX$read_delayed_var$object #b00000000000000000000000000000010)
(= |__unbuffered_p0_EAX#1$wclk$8| #b00010100)
(= |__unbuffered_p2_EAX#1$wclk$8| #b00010101)
(= |__unbuffered_p2_EAX#10$wclk$8| #b11111101)
(= |__unbuffered_p2_EAX$read_delayed#1$wclk$8| #b00101100)
(= |__unbuffered_p2_EAX$read_delayed_var#1$wclk$8| #b00101101)
(= |__unbuffered_p2_EAX$read_delayed_var#2$wclk$8| #b10000000)
(= |x$flush_delayed#1$wclk$8| #b01001000)
(= |x$flush_delayed#7$wclk$8| #b11111101)
(= |x$mem_tmp#1$wclk$8| #b01001001)
(= |x$mem_tmp#5$wclk$8| #b11111101)
(= |x$r_buff0_thd1#4$wclk$8| #b10000011)
(= |x$r_buff0_thd2#4$wclk$8| #b10100101)
(= |x$r_buff0_thd3#4$wclk$8| #b10000000)
(= |x$r_buff0_thd3#7$wclk$8| #b10110100)
(= |x$r_buff1_thd1#4$wclk$8| #b10000011)
(= |x$r_buff1_thd2#4$wclk$8| #b10100101)
(= |x$r_buff1_thd3#4$wclk$8| #b10000000)
(= |x$r_buff1_thd3#7$wclk$8| #b10110100)
(= |y#1$wclk$8| #b01100101)
(= |weak$$choice0#1$wclk$8| #b01000100)
(= |weak$$choice0#4$wclk$8| #b11111101)
(= |weak$$choice2#1$wclk$8| #b01000110)
(= |weak$$choice2#11$wclk$8| #b11111101)
(= t1$57$spwnclk$8 #b01110001)
(= t1$62$spwnclk$8 #b01110101)
(= t1$67$spwnclk$8 #b01111111)
(= |main::1::t2136!0@1$wclk$8| #b00000000)
(= |main::1::t2137!0@1$wclk$8| #b00000001)
(= __unbuffered_p2_EAX$read_delayed_var$object$wclk$8 #b00000010)
(= |__CPROVER_dead_object#1$wclk$8| #b00000011)
(= |__CPROVER_deallocated#1$wclk$8| #b00000100)
(= |__CPROVER_malloc_is_new_array#1$wclk$8| #b00001100)
(= |__CPROVER_malloc_object#1$wclk$8| #b00001101)
(= |__CPROVER_malloc_size#1$wclk$8| #b00001110)
(= |__CPROVER_memory_leak#1$wclk$8| #b00001111)
(= |__CPROVER_next_thread_id#1$wclk$8| #b00010000)
(= |__CPROVER_pipe_count#1$wclk$8| #b00010001)
(= |__unbuffered_p2_EAX$flush_delayed#1$wclk$8| #b00010110)
(= |__unbuffered_p2_EAX$mem_tmp#1$wclk$8| #b00010111)
(= |__unbuffered_p2_EAX$r_buff0_thd0#1$wclk$8| #b00011000)
(= |__unbuffered_p2_EAX$r_buff0_thd1#1$wclk$8| #b00011001)
(= |__unbuffered_p2_EAX$r_buff0_thd2#1$wclk$8| #b00011010)
(= |__unbuffered_p2_EAX$r_buff0_thd3#1$wclk$8| #b00011011)
(= |__unbuffered_p2_EAX$r_buff1_thd0#1$wclk$8| #b00011100)
(= |__unbuffered_p2_EAX$r_buff1_thd1#1$wclk$8| #b00011101)
(= |__unbuffered_p2_EAX$r_buff1_thd2#1$wclk$8| #b00011110)
(= |__unbuffered_p2_EAX$r_buff1_thd3#1$wclk$8| #b00011111)
(= |__unbuffered_p2_EAX$w_buff0#1$wclk$8| #b00101110)
(= |__unbuffered_p2_EAX$w_buff0_used#1$wclk$8| #b00101111)
(= |__unbuffered_p2_EAX$w_buff1#1$wclk$8| #b00110000)
(= |__unbuffered_p2_EAX$w_buff1_used#1$wclk$8| #b00110001)
(= |main$tmp_guard0#1$wclk$8| #b01000010)
(= |main$tmp_guard1#1$wclk$8| #b01000011)
(= |weak$$choice1#1$wclk$8| #b01000101)
(= |x$r_buff0_thd0#1$wclk$8| #b01001010)
(= |x$r_buff1_thd0#1$wclk$8| #b01010000)
(= |x$read_delayed#1$wclk$8| #b01011010)
(= |x$read_delayed_var#1$wclk$8| #b01100000)
(= |main::1::t2135!0@1#1$wclk$8| #b01100111)
(= |__CPROVER_next_thread_id#2$wclk$8| #b01101000)
(= |main::1::t2135!0@1#2$wclk$8| #b01101100)
(= |main::1::t2136!0@1#1$wclk$8| #b01110010)
(= |__CPROVER_next_thread_id#3$rclk$8| #b01110011)
(= |__CPROVER_next_thread_id#5$wclk$8| #b01110011)
(= |main::1::t2136!0@1#2$wclk$8| #b01110100)
(= |main::1::t2137!0@1#1$wclk$8| #b01110110)
(= |__CPROVER_next_thread_id#6$rclk$8| #b01110111)
(= |__CPROVER_next_thread_id#8$wclk$8| #b01110111)
(= |main::1::t2137!0@1#2$wclk$8| #b01111110)
(= |main$tmp_guard0#2$wclk$8| #b10110110)
(= |main$tmp_guard0#3$rclk$8| #b10110111)
(= |x$r_buff1_thd0#2$rclk$8| #b10111101)
(= |x$r_buff0_thd0#2$rclk$8| #b10111101)
(= |x$r_buff1_thd0#8$wclk$8| #b10111101)
(= |x$r_buff0_thd0#10$wclk$8| #b10111101)
(= |main$tmp_guard1#3$rclk$8| #b11111101)
(= |weak$$choice1#3$rclk$8| #b11111101)
(= |__unbuffered_p2_EAX$read_delayed_var$object#1$rclk$8| #b11111101)
(= |x$r_buff0_thd0#11$rclk$8| #b11111101)
(= |x$r_buff1_thd0#9$rclk$8| #b11111101)
(= |main$tmp_guard1#4$wclk$8| #b11111101)
(= |weak$$choice1#7$wclk$8| #b11111101)
(= |x$r_buff0_thd0#37$wclk$8| #b11111101)
(= |x$r_buff1_thd0#20$wclk$8| #b11111101)
(= |main$tmp_guard1#5$rclk$8| #b11111110)
(= |main$tmp_guard1#6$rclk$8| #b11111111)
(= array_of.0 @fun_9)
(= |__CPROVER_threads_exited#2| @fun_9)
(= |__CPROVER_threads_exited#4| @fun_9)
(= |__CPROVER_threads_exited#6| @fun_9)
(function @fun_9
 (type (Array (_ BitVec 32) (_ BitVec 1)))
 (= (@fun_9 #b01000000000000000000000000000000) #b0)
 (default #b1))

real	0m0.039s
user	0m0.032s
sys	0m0.006s
State: AC Run_time: 0.040653228759765625